c Reading file examples/loan_acquisition/mmc_encoding/encoding.dimacs
c Building 1-fold quantitative self-composition...
c ind 102  103  108  109  110  111  112  113  117  118 0
c previous ind: 432  435  438  439  442  443  446  449  452  453  456  457  460  461  464  465  468  469  472  473  476  477  480  481  484  485  488  489  492  493  494  497  498  501  502  504  505  506 0
c This is a CNF SAT formula in the DIMACS CNF format,
c produced with the bc2cnf translator by Tommi Junttila;
c see http://users.ics.aalto.fi/tjunttil/circuits/index.html
c phi_Gamma_det <-> 1
c phi_Gamma <-> 1
c phi_T_transitions <-> 1
c phi_T <-> 1
c phi_sim_leaves <-> 1
c phi_sim_transition <-> 1
c phi_sim <-> 1
c FORMULA <-> 1
c pi_0 <-> 2
c phi_T_transitions_consistency <-> 85
c tau_0_3_approved_1 <-> 102
c tau_0_3_approved_0 <-> 103
c tau_0_2_approved_1 <-> 108
c tau_0_2_approved_0 <-> 109
c tau_0_1_approved_1 <-> 110
c tau_0_1_approved_0 <-> 111
c tau_0_0_approved_1 <-> 112
c tau_0_0_approved_0 <-> 113
c phi_T_feature_det <-> 114
c lam_0_monthly_income <-> 117
c lam_0_age <-> 118
c phi_Gamma_val <-> 430
c monthly_income_P580400 <-> 432
c monthly_income_P466400 <-> 435
c monthly_income_P161600 <-> 438
c age_P6100 <-> 439
c monthly_income_P162000 <-> 442
c age_P5900 <-> 443
c monthly_income_P916700 <-> 446
c monthly_income_P218600 <-> 449
c monthly_income_P537400 <-> 452
c age_P7500 <-> 453
c monthly_income_P950300 <-> 456
c age_P6900 <-> 457
c monthly_income_P695800 <-> 460
c age_P7400 <-> 461
c monthly_income_P573100 <-> 464
c age_P3500 <-> 465
c monthly_income_P830100 <-> 468
c age_P7700 <-> 469
c monthly_income_P653000 <-> 472
c age_P3300 <-> 473
c monthly_income_P921300 <-> 476
c age_P7600 <-> 477
c monthly_income_P416000 <-> 480
c age_P4800 <-> 481
c monthly_income_P517200 <-> 484
c age_P4000 <-> 485
c monthly_income_P905800 <-> 488
c age_P4700 <-> 489
c pi_approved_0 <-> 492
c approved_P0 <-> 492
c monthly_income_P877500 <-> 493
c age_P2700 <-> 494
c monthly_income_P852500 <-> 497
c age_P4300 <-> 498
c monthly_income_P421400 <-> 501
c age_P6800 <-> 502
c pi_approved_1 <-> 504
c approved_P100 <-> 504
c monthly_income_P439100 <-> 505
c age_P5700 <-> 506
c ind 432 435 438 439 442 443 446 449 452 453 456 457 460 461 464 465 468 469 472 473 476 477 480 481 484 485 488 489 492 493 494 497 498 501 502 504 505 506 0
p cnf 508 1413
1 0
2 -3 0
2 -13 0
-2 13 3 0
2 0
-3 4 0
-3 62 0
3 -62 -4 0
-4 5 0
-4 117 0
4 -117 -5 0
5 -6 0
5 -35 0
-5 35 6 0
6 -7 0
6 -41 0
-6 41 7 0
7 -8 0
7 -43 0
-7 43 8 0
8 -9 0
8 -45 0
-8 45 9 0
9 -10 0
9 -71 0
-9 71 10 0
10 -11 0
10 -47 0
-10 47 11 0
11 -12 0
11 -77 0
-11 77 12 0
12 -78 0
12 -84 0
-12 84 78 0
13 -14 0
13 -26 0
-13 26 14 0
-14 15 0
-14 80 0
14 -80 -15 0
-15 16 0
-15 117 0
15 -117 -16 0
16 -17 0
16 -56 0
-16 56 17 0
17 -18 0
17 -67 0
-17 67 18 0
18 -19 0
18 -33 0
-18 33 19 0
19 -20 0
19 -58 0
-19 58 20 0
20 -21 0
20 -37 0
-20 37 21 0
21 -22 0
21 -39 0
-21 39 22 0
22 -23 0
22 -69 0
-22 69 23 0
23 -24 0
23 -73 0
-23 73 24 0
24 -25 0
24 -75 0
-24 75 25 0
25 -48 0
25 -59 0
-25 59 48 0
26 -27 0
26 -49 0
-26 49 27 0
-27 28 0
-27 31 0
27 -31 -28 0
-28 29 0
-28 30 0
28 -30 -29 0
29 102 0
29 -504 0
-29 504 -102 0
30 103 0
30 -492 0
-30 492 -103 0
-31 32 0
-31 118 0
31 -118 -32 0
32 -33 0
32 -34 0
-32 34 33 0
-33 438 0
-33 439 0
33 -439 -438 0
34 -35 0
34 -36 0
-34 36 35 0
-35 446 0
-35 502 0
35 -502 -446 0
36 -37 0
36 -38 0
-36 38 37 0
-37 449 0
-37 453 0
37 -453 -449 0
38 -39 0
38 -40 0
-38 40 39 0
-39 452 0
-39 453 0
39 -453 -452 0
40 -41 0
40 -42 0
-40 42 41 0
-41 456 0
-41 457 0
41 -457 -456 0
42 -43 0
42 -44 0
-42 44 43 0
-43 460 0
-43 461 0
43 -461 -460 0
44 -45 0
44 -46 0
-44 46 45 0
-45 468 0
-45 469 0
45 -469 -468 0
46 -47 0
46 -48 0
-46 48 47 0
-47 476 0
-47 477 0
47 -477 -476 0
-48 501 0
-48 502 0
48 -502 -501 0
49 -50 0
49 -60 0
-49 60 50 0
-50 51 0
-50 54 0
50 -54 -51 0
-51 52 0
-51 53 0
51 -53 -52 0
52 108 0
52 -504 0
-52 504 -108 0
53 109 0
53 -492 0
-53 492 -109 0
-54 55 0
-54 118 0
54 -118 -55 0
55 -56 0
55 -57 0
-55 57 56 0
-56 432 0
-56 506 0
56 -506 -432 0
57 -58 0
57 -59 0
-57 59 58 0
-58 442 0
-58 443 0
58 -443 -442 0
-59 505 0
-59 506 0
59 -506 -505 0
60 -61 0
60 -79 0
-60 79 61 0
-61 62 0
-61 65 0
61 -65 -62 0
-62 63 0
-62 64 0
62 -64 -63 0
63 110 0
63 -504 0
-63 504 -110 0
64 111 0
64 -492 0
-64 492 -111 0
-65 66 0
-65 118 0
65 -118 -66 0
66 -67 0
66 -68 0
-66 68 67 0
-67 435 0
-67 485 0
67 -485 -435 0
68 -69 0
68 -70 0
-68 70 69 0
-69 464 0
-69 465 0
69 -465 -464 0
70 -71 0
70 -72 0
-70 72 71 0
-71 472 0
-71 473 0
71 -473 -472 0
72 -73 0
72 -74 0
-72 74 73 0
-73 480 0
-73 481 0
73 -481 -480 0
74 -75 0
74 -76 0
-74 76 75 0
-75 484 0
-75 485 0
75 -485 -484 0
76 -77 0
76 -78 0
-76 78 77 0
-77 488 0
-77 489 0
77 -489 -488 0
-78 497 0
-78 498 0
78 -498 -497 0
-79 80 0
-79 83 0
79 -83 -80 0
-80 81 0
-80 82 0
80 -82 -81 0
81 112 0
81 -504 0
-81 504 -112 0
82 113 0
82 -492 0
-82 492 -113 0
-83 84 0
-83 118 0
83 -118 -84 0
-84 493 0
-84 494 0
84 -494 -493 0
85 117 0
85 -86 0
-85 86 -117 0
85 0
-86 -102 0
-86 87 0
86 -87 102 0
-87 -103 0
-87 88 0
87 -88 103 0
-88 -108 0
-88 -109 0
88 109 108 0
89 117 0
89 -90 0
-89 90 -117 0
89 0
-90 91 0
-90 94 0
90 -94 -91 0
91 -92 0
91 -93 0
-91 93 92 0
-92 -111 0
-92 110 0
92 -110 111 0
-93 -110 0
-93 111 0
93 -111 110 0
94 -95 0
94 -96 0
-94 96 95 0
-95 -113 0
-95 112 0
95 -112 113 0
-96 -112 0
-96 113 0
96 -113 112 0
97 118 0
97 -98 0
-97 98 -118 0
97 0
-98 99 0
-98 104 0
98 -104 -99 0
99 -100 0
99 -101 0
-99 101 100 0
-100 -103 0
-100 102 0
100 -102 103 0
-101 -102 0
-101 103 0
101 -103 102 0
-104 90 0
-104 105 0
104 -105 -90 0
105 -106 0
105 -107 0
-105 107 106 0
-106 -109 0
-106 108 0
106 -108 109 0
-107 -108 0
-107 109 0
107 -109 108 0
114 -115 0
114 -116 0
-114 116 115 0
114 0
-115 -118 0
-115 117 0
115 -117 118 0
-116 -117 0
-116 118 0
116 -118 117 0
119 504 0
119 492 0
-119 -492 -504 0
119 0
120 435 0
120 432 0
-120 -432 -435 0
120 0
121 438 0
121 -122 0
-121 122 -438 0
121 0
-122 -435 0
-122 -432 0
122 432 435 0
123 442 0
123 -124 0
-123 124 -442 0
123 0
-124 -432 0
-124 125 0
124 -125 432 0
-125 -435 0
-125 -438 0
125 438 435 0
126 446 0
126 -127 0
-126 127 -446 0
126 0
-127 -432 0
-127 128 0
127 -128 432 0
-128 -435 0
-128 129 0
128 -129 435 0
-129 -438 0
-129 -442 0
129 442 438 0
130 449 0
130 -131 0
-130 131 -449 0
130 0
-131 -432 0
-131 132 0
131 -132 432 0
-132 -435 0
-132 133 0
132 -133 435 0
-133 -438 0
-133 134 0
133 -134 438 0
-134 -442 0
-134 -446 0
134 446 442 0
135 452 0
135 -136 0
-135 136 -452 0
135 0
-136 -432 0
-136 137 0
136 -137 432 0
-137 -435 0
-137 138 0
137 -138 435 0
-138 -438 0
-138 139 0
138 -139 438 0
-139 -442 0
-139 140 0
139 -140 442 0
-140 -446 0
-140 -449 0
140 449 446 0
141 456 0
141 -142 0
-141 142 -456 0
141 0
-142 -432 0
-142 143 0
142 -143 432 0
-143 -435 0
-143 144 0
143 -144 435 0
-144 -438 0
-144 145 0
144 -145 438 0
-145 -442 0
-145 146 0
145 -146 442 0
-146 -446 0
-146 147 0
146 -147 446 0
-147 -449 0
-147 -452 0
147 452 449 0
148 460 0
148 -149 0
-148 149 -460 0
148 0
-149 -432 0
-149 150 0
149 -150 432 0
-150 -435 0
-150 151 0
150 -151 435 0
-151 -438 0
-151 152 0
151 -152 438 0
-152 -442 0
-152 153 0
152 -153 442 0
-153 -446 0
-153 154 0
153 -154 446 0
-154 -449 0
-154 155 0
154 -155 449 0
-155 -452 0
-155 -456 0
155 456 452 0
156 464 0
156 -157 0
-156 157 -464 0
156 0
-157 -432 0
-157 158 0
157 -158 432 0
-158 -435 0
-158 159 0
158 -159 435 0
-159 -438 0
-159 160 0
159 -160 438 0
-160 -442 0
-160 161 0
160 -161 442 0
-161 -446 0
-161 162 0
161 -162 446 0
-162 -449 0
-162 163 0
162 -163 449 0
-163 -452 0
-163 164 0
163 -164 452 0
-164 -456 0
-164 -460 0
164 460 456 0
165 468 0
165 -166 0
-165 166 -468 0
165 0
-166 -432 0
-166 167 0
166 -167 432 0
-167 -435 0
-167 168 0
167 -168 435 0
-168 -438 0
-168 169 0
168 -169 438 0
-169 -442 0
-169 170 0
169 -170 442 0
-170 -446 0
-170 171 0
170 -171 446 0
-171 -449 0
-171 172 0
171 -172 449 0
-172 -452 0
-172 173 0
172 -173 452 0
-173 -456 0
-173 174 0
173 -174 456 0
-174 -460 0
-174 -464 0
174 464 460 0
175 472 0
175 -176 0
-175 176 -472 0
175 0
-176 -432 0
-176 177 0
176 -177 432 0
-177 -435 0
-177 178 0
177 -178 435 0
-178 -438 0
-178 179 0
178 -179 438 0
-179 -442 0
-179 180 0
179 -180 442 0
-180 -446 0
-180 181 0
180 -181 446 0
-181 -449 0
-181 182 0
181 -182 449 0
-182 -452 0
-182 183 0
182 -183 452 0
-183 -456 0
-183 184 0
183 -184 456 0
-184 -460 0
-184 185 0
184 -185 460 0
-185 -464 0
-185 -468 0
185 468 464 0
186 476 0
186 -187 0
-186 187 -476 0
186 0
-187 -432 0
-187 188 0
187 -188 432 0
-188 -435 0
-188 189 0
188 -189 435 0
-189 -438 0
-189 190 0
189 -190 438 0
-190 -442 0
-190 191 0
190 -191 442 0
-191 -446 0
-191 192 0
191 -192 446 0
-192 -449 0
-192 193 0
192 -193 449 0
-193 -452 0
-193 194 0
193 -194 452 0
-194 -456 0
-194 195 0
194 -195 456 0
-195 -460 0
-195 196 0
195 -196 460 0
-196 -464 0
-196 197 0
196 -197 464 0
-197 -468 0
-197 -472 0
197 472 468 0
198 480 0
198 -199 0
-198 199 -480 0
198 0
-199 -432 0
-199 200 0
199 -200 432 0
-200 -435 0
-200 201 0
200 -201 435 0
-201 -438 0
-201 202 0
201 -202 438 0
-202 -442 0
-202 203 0
202 -203 442 0
-203 -446 0
-203 204 0
203 -204 446 0
-204 -449 0
-204 205 0
204 -205 449 0
-205 -452 0
-205 206 0
205 -206 452 0
-206 -456 0
-206 207 0
206 -207 456 0
-207 -460 0
-207 208 0
207 -208 460 0
-208 -464 0
-208 209 0
208 -209 464 0
-209 -468 0
-209 210 0
209 -210 468 0
-210 -472 0
-210 -476 0
210 476 472 0
211 484 0
211 -212 0
-211 212 -484 0
211 0
-212 -432 0
-212 213 0
212 -213 432 0
-213 -435 0
-213 214 0
213 -214 435 0
-214 -438 0
-214 215 0
214 -215 438 0
-215 -442 0
-215 216 0
215 -216 442 0
-216 -446 0
-216 217 0
216 -217 446 0
-217 -449 0
-217 218 0
217 -218 449 0
-218 -452 0
-218 219 0
218 -219 452 0
-219 -456 0
-219 220 0
219 -220 456 0
-220 -460 0
-220 221 0
220 -221 460 0
-221 -464 0
-221 222 0
221 -222 464 0
-222 -468 0
-222 223 0
222 -223 468 0
-223 -472 0
-223 224 0
223 -224 472 0
-224 -476 0
-224 -480 0
224 480 476 0
225 488 0
225 -226 0
-225 226 -488 0
225 0
-226 -432 0
-226 227 0
226 -227 432 0
-227 -435 0
-227 228 0
227 -228 435 0
-228 -438 0
-228 229 0
228 -229 438 0
-229 -442 0
-229 230 0
229 -230 442 0
-230 -446 0
-230 231 0
230 -231 446 0
-231 -449 0
-231 232 0
231 -232 449 0
-232 -452 0
-232 233 0
232 -233 452 0
-233 -456 0
-233 234 0
233 -234 456 0
-234 -460 0
-234 235 0
234 -235 460 0
-235 -464 0
-235 236 0
235 -236 464 0
-236 -468 0
-236 237 0
236 -237 468 0
-237 -472 0
-237 238 0
237 -238 472 0
-238 -476 0
-238 239 0
238 -239 476 0
-239 -480 0
-239 -484 0
239 484 480 0
240 493 0
240 -241 0
-240 241 -493 0
240 0
-241 -432 0
-241 242 0
241 -242 432 0
-242 -435 0
-242 243 0
242 -243 435 0
-243 -438 0
-243 244 0
243 -244 438 0
-244 -442 0
-244 245 0
244 -245 442 0
-245 -446 0
-245 246 0
245 -246 446 0
-246 -449 0
-246 247 0
246 -247 449 0
-247 -452 0
-247 248 0
247 -248 452 0
-248 -456 0
-248 249 0
248 -249 456 0
-249 -460 0
-249 250 0
249 -250 460 0
-250 -464 0
-250 251 0
250 -251 464 0
-251 -468 0
-251 252 0
251 -252 468 0
-252 -472 0
-252 253 0
252 -253 472 0
-253 -476 0
-253 254 0
253 -254 476 0
-254 -480 0
-254 255 0
254 -255 480 0
-255 -484 0
-255 -488 0
255 488 484 0
256 497 0
256 -257 0
-256 257 -497 0
256 0
-257 -432 0
-257 258 0
257 -258 432 0
-258 -435 0
-258 259 0
258 -259 435 0
-259 -438 0
-259 260 0
259 -260 438 0
-260 -442 0
-260 261 0
260 -261 442 0
-261 -446 0
-261 262 0
261 -262 446 0
-262 -449 0
-262 263 0
262 -263 449 0
-263 -452 0
-263 264 0
263 -264 452 0
-264 -456 0
-264 265 0
264 -265 456 0
-265 -460 0
-265 266 0
265 -266 460 0
-266 -464 0
-266 267 0
266 -267 464 0
-267 -468 0
-267 268 0
267 -268 468 0
-268 -472 0
-268 269 0
268 -269 472 0
-269 -476 0
-269 270 0
269 -270 476 0
-270 -480 0
-270 271 0
270 -271 480 0
-271 -484 0
-271 272 0
271 -272 484 0
-272 -488 0
-272 -493 0
272 493 488 0
273 501 0
273 -274 0
-273 274 -501 0
273 0
-274 -432 0
-274 275 0
274 -275 432 0
-275 -435 0
-275 276 0
275 -276 435 0
-276 -438 0
-276 277 0
276 -277 438 0
-277 -442 0
-277 278 0
277 -278 442 0
-278 -446 0
-278 279 0
278 -279 446 0
-279 -449 0
-279 280 0
279 -280 449 0
-280 -452 0
-280 281 0
280 -281 452 0
-281 -456 0
-281 282 0
281 -282 456 0
-282 -460 0
-282 283 0
282 -283 460 0
-283 -464 0
-283 284 0
283 -284 464 0
-284 -468 0
-284 285 0
284 -285 468 0
-285 -472 0
-285 286 0
285 -286 472 0
-286 -476 0
-286 287 0
286 -287 476 0
-287 -480 0
-287 288 0
287 -288 480 0
-288 -484 0
-288 289 0
288 -289 484 0
-289 -488 0
-289 290 0
289 -290 488 0
-290 -493 0
-290 -497 0
290 497 493 0
291 505 0
291 -292 0
-291 292 -505 0
291 0
-292 -432 0
-292 293 0
292 -293 432 0
-293 -435 0
-293 294 0
293 -294 435 0
-294 -438 0
-294 295 0
294 -295 438 0
-295 -442 0
-295 296 0
295 -296 442 0
-296 -446 0
-296 297 0
296 -297 446 0
-297 -449 0
-297 298 0
297 -298 449 0
-298 -452 0
-298 299 0
298 -299 452 0
-299 -456 0
-299 300 0
299 -300 456 0
-300 -460 0
-300 301 0
300 -301 460 0
-301 -464 0
-301 302 0
301 -302 464 0
-302 -468 0
-302 303 0
302 -303 468 0
-303 -472 0
-303 304 0
303 -304 472 0
-304 -476 0
-304 305 0
304 -305 476 0
-305 -480 0
-305 306 0
305 -306 480 0
-306 -484 0
-306 307 0
306 -307 484 0
-307 -488 0
-307 308 0
307 -308 488 0
-308 -493 0
-308 309 0
308 -309 493 0
-309 -497 0
-309 -501 0
309 501 497 0
310 443 0
310 439 0
-310 -439 -443 0
310 0
311 453 0
311 -312 0
-311 312 -453 0
311 0
-312 -443 0
-312 -439 0
312 439 443 0
313 457 0
313 -314 0
-313 314 -457 0
313 0
-314 -439 0
-314 315 0
314 -315 439 0
-315 -443 0
-315 -453 0
315 453 443 0
316 461 0
316 -317 0
-316 317 -461 0
316 0
-317 -439 0
-317 318 0
317 -318 439 0
-318 -443 0
-318 319 0
318 -319 443 0
-319 -453 0
-319 -457 0
319 457 453 0
320 465 0
320 -321 0
-320 321 -465 0
320 0
-321 -439 0
-321 322 0
321 -322 439 0
-322 -443 0
-322 323 0
322 -323 443 0
-323 -453 0
-323 324 0
323 -324 453 0
-324 -457 0
-324 -461 0
324 461 457 0
325 469 0
325 -326 0
-325 326 -469 0
325 0
-326 -439 0
-326 327 0
326 -327 439 0
-327 -443 0
-327 328 0
327 -328 443 0
-328 -453 0
-328 329 0
328 -329 453 0
-329 -457 0
-329 330 0
329 -330 457 0
-330 -461 0
-330 -465 0
330 465 461 0
331 473 0
331 -332 0
-331 332 -473 0
331 0
-332 -439 0
-332 333 0
332 -333 439 0
-333 -443 0
-333 334 0
333 -334 443 0
-334 -453 0
-334 335 0
334 -335 453 0
-335 -457 0
-335 336 0
335 -336 457 0
-336 -461 0
-336 337 0
336 -337 461 0
-337 -465 0
-337 -469 0
337 469 465 0
338 477 0
338 -339 0
-338 339 -477 0
338 0
-339 -439 0
-339 340 0
339 -340 439 0
-340 -443 0
-340 341 0
340 -341 443 0
-341 -453 0
-341 342 0
341 -342 453 0
-342 -457 0
-342 343 0
342 -343 457 0
-343 -461 0
-343 344 0
343 -344 461 0
-344 -465 0
-344 345 0
344 -345 465 0
-345 -469 0
-345 -473 0
345 473 469 0
346 481 0
346 -347 0
-346 347 -481 0
346 0
-347 -439 0
-347 348 0
347 -348 439 0
-348 -443 0
-348 349 0
348 -349 443 0
-349 -453 0
-349 350 0
349 -350 453 0
-350 -457 0
-350 351 0
350 -351 457 0
-351 -461 0
-351 352 0
351 -352 461 0
-352 -465 0
-352 353 0
352 -353 465 0
-353 -469 0
-353 354 0
353 -354 469 0
-354 -473 0
-354 -477 0
354 477 473 0
355 485 0
355 -356 0
-355 356 -485 0
355 0
-356 -439 0
-356 357 0
356 -357 439 0
-357 -443 0
-357 358 0
357 -358 443 0
-358 -453 0
-358 359 0
358 -359 453 0
-359 -457 0
-359 360 0
359 -360 457 0
-360 -461 0
-360 361 0
360 -361 461 0
-361 -465 0
-361 362 0
361 -362 465 0
-362 -469 0
-362 363 0
362 -363 469 0
-363 -473 0
-363 364 0
363 -364 473 0
-364 -477 0
-364 -481 0
364 481 477 0
365 489 0
365 -366 0
-365 366 -489 0
365 0
-366 -439 0
-366 367 0
366 -367 439 0
-367 -443 0
-367 368 0
367 -368 443 0
-368 -453 0
-368 369 0
368 -369 453 0
-369 -457 0
-369 370 0
369 -370 457 0
-370 -461 0
-370 371 0
370 -371 461 0
-371 -465 0
-371 372 0
371 -372 465 0
-372 -469 0
-372 373 0
372 -373 469 0
-373 -473 0
-373 374 0
373 -374 473 0
-374 -477 0
-374 375 0
374 -375 477 0
-375 -481 0
-375 -485 0
375 485 481 0
376 494 0
376 -377 0
-376 377 -494 0
376 0
-377 -439 0
-377 378 0
377 -378 439 0
-378 -443 0
-378 379 0
378 -379 443 0
-379 -453 0
-379 380 0
379 -380 453 0
-380 -457 0
-380 381 0
380 -381 457 0
-381 -461 0
-381 382 0
381 -382 461 0
-382 -465 0
-382 383 0
382 -383 465 0
-383 -469 0
-383 384 0
383 -384 469 0
-384 -473 0
-384 385 0
384 -385 473 0
-385 -477 0
-385 386 0
385 -386 477 0
-386 -481 0
-386 387 0
386 -387 481 0
-387 -485 0
-387 -489 0
387 489 485 0
388 498 0
388 -389 0
-388 389 -498 0
388 0
-389 -439 0
-389 390 0
389 -390 439 0
-390 -443 0
-390 391 0
390 -391 443 0
-391 -453 0
-391 392 0
391 -392 453 0
-392 -457 0
-392 393 0
392 -393 457 0
-393 -461 0
-393 394 0
393 -394 461 0
-394 -465 0
-394 395 0
394 -395 465 0
-395 -469 0
-395 396 0
395 -396 469 0
-396 -473 0
-396 397 0
396 -397 473 0
-397 -477 0
-397 398 0
397 -398 477 0
-398 -481 0
-398 399 0
398 -399 481 0
-399 -485 0
-399 400 0
399 -400 485 0
-400 -489 0
-400 -494 0
400 494 489 0
401 502 0
401 -402 0
-401 402 -502 0
401 0
-402 -439 0
-402 403 0
402 -403 439 0
-403 -443 0
-403 404 0
403 -404 443 0
-404 -453 0
-404 405 0
404 -405 453 0
-405 -457 0
-405 406 0
405 -406 457 0
-406 -461 0
-406 407 0
406 -407 461 0
-407 -465 0
-407 408 0
407 -408 465 0
-408 -469 0
-408 409 0
408 -409 469 0
-409 -473 0
-409 410 0
409 -410 473 0
-410 -477 0
-410 411 0
410 -411 477 0
-411 -481 0
-411 412 0
411 -412 481 0
-412 -485 0
-412 413 0
412 -413 485 0
-413 -489 0
-413 414 0
413 -414 489 0
-414 -494 0
-414 -498 0
414 498 494 0
415 506 0
415 -416 0
-415 416 -506 0
415 0
-416 -439 0
-416 417 0
416 -417 439 0
-417 -443 0
-417 418 0
417 -418 443 0
-418 -453 0
-418 419 0
418 -419 453 0
-419 -457 0
-419 420 0
419 -420 457 0
-420 -461 0
-420 421 0
420 -421 461 0
-421 -465 0
-421 422 0
421 -422 465 0
-422 -469 0
-422 423 0
422 -423 469 0
-423 -473 0
-423 424 0
423 -424 473 0
-424 -477 0
-424 425 0
424 -425 477 0
-425 -481 0
-425 426 0
425 -426 481 0
-426 -485 0
-426 427 0
426 -427 485 0
-427 -489 0
-427 428 0
427 -428 489 0
-428 -494 0
-428 429 0
428 -429 494 0
-429 -498 0
-429 -502 0
429 502 498 0
430 -431 0
430 -433 0
-430 433 431 0
430 0
-431 56 0
-431 504 0
431 -504 -56 0
433 -434 0
433 -436 0
-433 436 434 0
-434 67 0
-434 504 0
434 -504 -67 0
436 -437 0
436 -440 0
-436 440 437 0
-437 33 0
-437 504 0
437 -504 -33 0
440 -441 0
440 -444 0
-440 444 441 0
-441 58 0
-441 504 0
441 -504 -58 0
444 -445 0
444 -447 0
-444 447 445 0
-445 35 0
-445 504 0
445 -504 -35 0
447 -448 0
447 -450 0
-447 450 448 0
-448 37 0
-448 504 0
448 -504 -37 0
450 -451 0
450 -454 0
-450 454 451 0
-451 39 0
-451 504 0
451 -504 -39 0
454 -455 0
454 -458 0
-454 458 455 0
-455 41 0
-455 504 0
455 -504 -41 0
458 -459 0
458 -462 0
-458 462 459 0
-459 43 0
-459 504 0
459 -504 -43 0
462 -463 0
462 -466 0
-462 466 463 0
-463 69 0
-463 504 0
463 -504 -69 0
466 -467 0
466 -470 0
-466 470 467 0
-467 45 0
-467 504 0
467 -504 -45 0
470 -471 0
470 -474 0
-470 474 471 0
-471 71 0
-471 504 0
471 -504 -71 0
474 -475 0
474 -478 0
-474 478 475 0
-475 47 0
-475 504 0
475 -504 -47 0
478 -479 0
478 -482 0
-478 482 479 0
-479 73 0
-479 504 0
479 -504 -73 0
482 -483 0
482 -486 0
-482 486 483 0
-483 75 0
-483 504 0
483 -504 -75 0
486 -487 0
486 -490 0
-486 490 487 0
-487 77 0
-487 504 0
487 -504 -77 0
490 -491 0
490 -495 0
-490 495 491 0
-491 84 0
-491 492 0
491 -492 -84 0
495 -496 0
495 -499 0
-495 499 496 0
-496 78 0
-496 504 0
496 -504 -78 0
499 -500 0
499 -503 0
-499 503 500 0
-500 48 0
-500 504 0
500 -504 -48 0
-503 59 0
-503 504 0
503 -504 -59 0
